Route 1: 0 49 3 78 59 40 72 84 57 13 93 0
Route 2: 0 66 33 8 41 6 83 31 60 0
Route 3: 0 88 11 55 22 54 42 35 53 0
Route 4: 0 68 100 9 87 5 85 63 0
Route 5: 0 58 34 14 69 89 90 15 62 18 0
Route 6: 0 48 19 75 39 76 28 0
Route 7: 0 32 45 1 79 37 99 64 7 0
Route 8: 0 21 2 20 52 61 67 51 92 86 30 0
Route 9: 0 91 17 10 94 70 16 95 50 46 36 0
Route 10: 0 82 77 38 47 24 27 81 43 0
Route 11: 0 25 65 4 71 56 44 98 26 74 0
Route 12: 0 80 12 97 96 73 23 29 0
